ISTART = 0
ICHARG = 2
INIWAV = 0
LELF = .FALSE.
LCHARG = .FALSE.
ISYM = 2
ISIF = 3
PSTRESS = 0
ALGO = F
NELMDL = -12
NCORE = 8
KPAR = 1
NSIM = 4
LREAL= Auto
LWAVE = .FALSE.
EDIFF = 1E-6
ADDGRID = .TRUE.
EDIFFG = -0.03
NELM = 50
NSW = 400
IBRION = 1
NDAV = 3
PREC = Normal
GGA = PE
VOSKOWN = 1
ISMEAR = 0
SIGMA = 0.1
IVDW=12
LPLANE=.TRUE.
ENCUT=600
